NAME: cuum750.tsp
TYPE: TSP
COMMENT: User-generated TSP file
DIMENSION: 750
EDGE_WEIGHT_TYPE: EUC_2D
NODE_COORD_SECTION
1 179.0 19.0
2 63.0 173.0
3 18.0 472.0
4 361.0 635.0
5 383.0 461.0
6 205.0 555.0
7 40.0 549.0
8 35.0 122.0
9 691.0 655.0
10 390.0 331.0
11 59.0 220.0
12 17.0 313.0
13 147.0 299.0
14 377.0 684.0
15 367.0 134.0
16 231.0 445.0
17 393.0 688.0
18 69.0 209.0
19 638.0 637.0
20 22.0 568.0
21 678.0 190.0
22 451.0 331.0
23 680.0 310.0
24 229.0 454.0
25 161.0 108.0
26 165.0 322.0
27 227.0 251.0
28 697.0 254.0
29 687.0 464.0
30 704.0 138.0
31 720.0 498.0
32 358.0 660.0
33 640.0 53.0
34 387.0 729.0
35 717.0 509.0
36 715.0 694.0
37 208.0 684.0
38 581.0 673.0
39 161.0 155.0
40 97.0 34.0
41 602.0 619.0
42 663.0 43.0
43 635.0 733.0
44 80.0 334.0
45 704.0 248.0
46 720.0 452.0
47 443.0 675.0
48 606.0 93.0
49 656.0 588.0
50 5.0 312.0
51 407.0 531.0
52 597.0 225.0
53 600.0 129.0
54 441.0 35.0
55 170.0 89.0
56 6.0 350.0
57 682.0 676.0
58 280.0 629.0
59 737.0 237.0
60 51.0 304.0
61 349.0 636.0
62 242.0 384.0
63 494.0 296.0
64 474.0 54.0
65 175.0 124.0
66 539.0 185.0
67 16.0 378.0
68 745.0 593.0
69 260.0 182.0
70 603.0 317.0
71 572.0 714.0
72 462.0 37.0
73 627.0 143.0
74 367.0 12.0
75 501.0 386.0
76 257.0 107.0
77 392.0 471.0
78 335.0 158.0
79 592.0 331.0
80 636.0 494.0
81 602.0 502.0
82 467.0 333.0
83 124.0 439.0
84 706.0 633.0
85 600.0 135.0
86 524.0 483.0
87 695.0 338.0
88 632.0 541.0
89 510.0 230.0
90 234.0 726.0
91 116.0 14.0
92 38.0 342.0
93 14.0 57.0
94 536.0 402.0
95 192.0 256.0
96 452.0 27.0
97 318.0 394.0
98 9.0 618.0
99 358.0 216.0
100 384.0 674.0
101 126.0 230.0
102 470.0 511.0
103 679.0 441.0
104 722.0 678.0
105 419.0 715.0
106 472.0 725.0
107 237.0 223.0
108 454.0 659.0
109 589.0 725.0
110 651.0 393.0
111 195.0 124.0
112 82.0 353.0
113 710.0 706.0
114 97.0 749.0
115 631.0 128.0
116 586.0 456.0
117 586.0 481.0
118 716.0 503.0
119 437.0 523.0
120 435.0 500.0
121 432.0 461.0
122 518.0 490.0
123 722.0 118.0
124 257.0 410.0
125 532.0 175.0
126 205.0 353.0
127 147.0 597.0
128 269.0 694.0
129 726.0 403.0
130 168.0 577.0
131 130.0 424.0
132 343.0 687.0
133 684.0 505.0
134 123.0 168.0
135 645.0 256.0
136 267.0 552.0
137 5.0 653.0
138 9.0 666.0
139 383.0 534.0
140 435.0 22.0
141 411.0 630.0
142 69.0 33.0
143 504.0 603.0
144 80.0 69.0
145 394.0 17.0
146 200.0 408.0
147 706.0 441.0
148 421.0 324.0
149 608.0 344.0
150 746.0 689.0
151 630.0 403.0
152 538.0 66.0
153 201.0 585.0
154 537.0 297.0
155 259.0 215.0
156 160.0 462.0
157 585.0 649.0
158 283.0 341.0
159 41.0 388.0
160 187.0 362.0
161 513.0 86.0
162 616.0 251.0
163 165.0 100.0
164 387.0 570.0
165 446.0 510.0
166 225.0 318.0
167 461.0 576.0
168 745.0 175.0
169 389.0 240.0
170 483.0 70.0
171 706.0 43.0
172 204.0 11.0
173 337.0 514.0
174 548.0 744.0
175 433.0 703.0
176 670.0 14.0
177 105.0 735.0
178 474.0 498.0
179 86.0 427.0
180 582.0 175.0
181 467.0 52.0
182 533.0 708.0
183 256.0 521.0
184 41.0 8.0
185 243.0 594.0
186 672.0 650.0
187 343.0 186.0
188 441.0 60.0
189 545.0 698.0
190 162.0 376.0
191 580.0 124.0
192 41.0 354.0
193 17.0 116.0
194 312.0 138.0
195 642.0 104.0
196 679.0 613.0
197 528.0 571.0
198 236.0 302.0
199 373.0 181.0
200 245.0 432.0
201 524.0 84.0
202 453.0 694.0
203 165.0 263.0
204 371.0 668.0
205 505.0 677.0
206 506.0 500.0
207 451.0 465.0
208 632.0 137.0
209 470.0 572.0
210 160.0 636.0
211 385.0 355.0
212 730.0 21.0
213 327.0 385.0
214 33.0 36.0
215 650.0 157.0
216 542.0 503.0
217 545.0 467.0
218 566.0 576.0
219 507.0 155.0
220 671.0 584.0
221 437.0 114.0
222 409.0 161.0
223 347.0 121.0
224 22.0 595.0
225 534.0 541.0
226 253.0 619.0
227 364.0 287.0
228 358.0 548.0
229 593.0 44.0
230 490.0 600.0
231 58.0 633.0
232 366.0 519.0
233 717.0 715.0
234 223.0 307.0
235 339.0 536.0
236 432.0 267.0
237 11.0 547.0
238 516.0 50.0
239 392.0 438.0
240 565.0 110.0
241 363.0 39.0
242 709.0 187.0
243 704.0 284.0
244 508.0 441.0
245 657.0 545.0
246 691.0 462.0
247 433.0 522.0
248 44.0 386.0
249 257.0 87.0
250 377.0 67.0
251 469.0 482.0
252 65.0 57.0
253 385.0 233.0
254 458.0 359.0
255 729.0 25.0
256 208.0 322.0
257 394.0 170.0
258 150.0 672.0
259 589.0 164.0
260 257.0 37.0
261 393.0 350.0
262 406.0 271.0
263 86.0 625.0
264 499.0 121.0
265 112.0 375.0
266 182.0 294.0
267 454.0 327.0
268 373.0 254.0
269 603.0 18.0
270 595.0 244.0
271 83.0 360.0
272 299.0 572.0
273 330.0 245.0
274 563.0 344.0
275 338.0 540.0
276 75.0 743.0
277 105.0 585.0
278 375.0 610.0
279 144.0 475.0
280 541.0 362.0
281 364.0 252.0
282 571.0 121.0
283 581.0 197.0
284 486.0 211.0
285 50.0 169.0
286 98.0 256.0
287 655.0 355.0
288 585.0 511.0
289 401.0 624.0
290 587.0 1.0
291 61.0 123.0
292 620.0 501.0
293 569.0 26.0
294 74.0 455.0
295 360.0 366.0
296 227.0 331.0
297 161.0 286.0
298 189.0 684.0
299 4.0 1.0
300 365.0 22.0
301 336.0 416.0
302 93.0 511.0
303 2.0 270.0
304 624.0 201.0
305 362.0 134.0
306 116.0 238.0
307 647.0 175.0
308 676.0 474.0
309 534.0 711.0
310 719.0 286.0
311 90.0 519.0
312 322.0 191.0
313 454.0 513.0
314 318.0 565.0
315 554.0 257.0
316 523.0 134.0
317 43.0 157.0
318 617.0 476.0
319 250.0 139.0
320 298.0 24.0
321 229.0 658.0
322 631.0 426.0
323 362.0 610.0
324 130.0 340.0
325 371.0 6.0
326 268.0 116.0
327 529.0 436.0
328 224.0 693.0
329 197.0 406.0
330 691.0 188.0
331 616.0 706.0
332 296.0 484.0
333 227.0 69.0
334 401.0 246.0
335 714.0 367.0
336 237.0 343.0
337 311.0 185.0
338 81.0 470.0
339 190.0 525.0
340 506.0 509.0
341 318.0 335.0
342 673.0 313.0
343 719.0 384.0
344 235.0 706.0
345 664.0 33.0
346 697.0 530.0
347 246.0 673.0
348 593.0 411.0
349 161.0 682.0
350 453.0 75.0
351 362.0 460.0
352 696.0 120.0
353 23.0 136.0
354 607.0 140.0
355 474.0 681.0
356 196.0 422.0
357 60.0 503.0
358 270.0 120.0
359 287.0 130.0
360 673.0 676.0
361 470.0 250.0
362 667.0 429.0
363 405.0 122.0
364 609.0 69.0
365 518.0 70.0
366 543.0 205.0
367 437.0 478.0
368 270.0 385.0
369 634.0 678.0
370 80.0 333.0
371 291.0 542.0
372 156.0 136.0
373 306.0 452.0
374 452.0 562.0
375 162.0 546.0
376 601.0 656.0
377 570.0 285.0
378 369.0 456.0
379 718.0 610.0
380 342.0 302.0
381 338.0 205.0
382 509.0 402.0
383 444.0 724.0
384 71.0 650.0
385 254.0 24.0
386 185.0 541.0
387 712.0 552.0
388 605.0 673.0
389 232.0 131.0
390 689.0 701.0
391 610.0 485.0
392 320.0 505.0
393 652.0 531.0
394 650.0 444.0
395 323.0 371.0
396 198.0 470.0
397 320.0 33.0
398 328.0 396.0
399 492.0 318.0
400 181.0 9.0
401 669.0 491.0
402 69.0 71.0
403 159.0 689.0
404 644.0 491.0
405 267.0 151.0
406 554.0 151.0
407 198.0 197.0
408 742.0 13.0
409 444.0 264.0
410 50.0 409.0
411 173.0 500.0
412 613.0 378.0
413 444.0 643.0
414 360.0 720.0
415 40.0 322.0
416 470.0 452.0
417 600.0 549.0
418 565.0 554.0
419 615.0 188.0
420 276.0 476.0
421 540.0 556.0
422 576.0 600.0
423 88.0 463.0
424 739.0 288.0
425 616.0 614.0
426 279.0 531.0
427 164.0 518.0
428 487.0 622.0
429 540.0 107.0
430 195.0 165.0
431 339.0 667.0
432 704.0 660.0
433 698.0 390.0
434 80.0 748.0
435 461.0 426.0
436 233.0 553.0
437 306.0 634.0
438 393.0 418.0
439 161.0 273.0
440 712.0 37.0
441 649.0 368.0
442 47.0 722.0
443 418.0 155.0
444 412.0 81.0
445 365.0 730.0
446 645.0 701.0
447 40.0 336.0
448 492.0 373.0
449 107.0 140.0
450 727.0 271.0
451 597.0 557.0
452 71.0 621.0
453 210.0 462.0
454 283.0 14.0
455 209.0 670.0
456 670.0 595.0
457 650.0 610.0
458 147.0 245.0
459 102.0 743.0
460 703.0 489.0
461 620.0 90.0
462 35.0 567.0
463 705.0 211.0
464 487.0 550.0
465 52.0 635.0
466 537.0 316.0
467 170.0 598.0
468 683.0 535.0
469 592.0 83.0
470 433.0 647.0
471 187.0 198.0
472 419.0 104.0
473 57.0 467.0
474 661.0 263.0
475 365.0 630.0
476 213.0 249.0
477 596.0 726.0
478 43.0 684.0
479 514.0 141.0
480 116.0 68.0
481 335.0 625.0
482 701.0 650.0
483 289.0 235.0
484 109.0 471.0
485 406.0 390.0
486 157.0 352.0
487 15.0 234.0
488 19.0 670.0
489 32.0 100.0
490 383.0 128.0
491 385.0 504.0
492 625.0 96.0
493 133.0 535.0
494 387.0 713.0
495 55.0 354.0
496 81.0 506.0
497 4.0 357.0
498 427.0 563.0
499 439.0 89.0
500 556.0 498.0
501 632.0 358.0
502 252.0 705.0
503 724.0 473.0
504 299.0 656.0
505 733.0 211.0
506 599.0 666.0
507 664.0 81.0
508 731.0 95.0
509 583.0 278.0
510 499.0 200.0
511 619.0 207.0
512 245.0 639.0
513 743.0 296.0
514 21.0 472.0
515 36.0 731.0
516 739.0 221.0
517 9.0 566.0
518 738.0 552.0
519 730.0 432.0
520 302.0 254.0
521 643.0 33.0
522 690.0 720.0
523 378.0 453.0
524 468.0 78.0
525 633.0 554.0
526 230.0 363.0
527 181.0 360.0
528 154.0 367.0
529 373.0 36.0
530 244.0 616.0
531 727.0 94.0
532 594.0 417.0
533 44.0 584.0
534 247.0 474.0
535 672.0 606.0
536 81.0 259.0
537 526.0 81.0
538 243.0 303.0
539 670.0 516.0
540 315.0 38.0
541 337.0 249.0
542 561.0 745.0
543 211.0 406.0
544 554.0 408.0
545 385.0 277.0
546 539.0 740.0
547 84.0 258.0
548 339.0 561.0
549 554.0 48.0
550 514.0 359.0
551 28.0 120.0
552 562.0 158.0
553 277.0 90.0
554 359.0 162.0
555 432.0 723.0
556 532.0 462.0
557 141.0 278.0
558 10.0 100.0
559 369.0 722.0
560 71.0 65.0
561 673.0 32.0
562 631.0 725.0
563 263.0 649.0
564 250.0 274.0
565 438.0 375.0
566 103.0 635.0
567 622.0 748.0
568 678.0 600.0
569 656.0 65.0
570 130.0 568.0
571 92.0 533.0
572 739.0 326.0
573 135.0 425.0
574 303.0 225.0
575 338.0 99.0
576 538.0 731.0
577 383.0 209.0
578 295.0 494.0
579 61.0 355.0
580 168.0 651.0
581 25.0 274.0
582 88.0 55.0
583 246.0 81.0
584 387.0 301.0
585 572.0 272.0
586 181.0 105.0
587 459.0 658.0
588 632.0 203.0
589 419.0 159.0
590 272.0 275.0
591 460.0 543.0
592 477.0 709.0
593 163.0 453.0
594 498.0 527.0
595 426.0 683.0
596 363.0 213.0
597 709.0 120.0
598 355.0 318.0
599 213.0 340.0
600 486.0 613.0
601 384.0 64.0
602 300.0 637.0
603 352.0 193.0
604 243.0 18.0
605 214.0 691.0
606 495.0 369.0
607 555.0 348.0
608 556.0 594.0
609 510.0 411.0
610 62.0 750.0
611 661.0 358.0
612 140.0 394.0
613 439.0 270.0
614 95.0 517.0
615 498.0 91.0
616 649.0 570.0
617 10.0 569.0
618 406.0 76.0
619 643.0 360.0
620 516.0 528.0
621 21.0 661.0
622 601.0 2.0
623 393.0 493.0
624 411.0 295.0
625 327.0 569.0
626 586.0 533.0
627 327.0 675.0
628 311.0 91.0
629 254.0 93.0
630 484.0 119.0
631 334.0 205.0
632 207.0 310.0
633 367.0 93.0
634 700.0 469.0
635 110.0 706.0
636 711.0 342.0
637 336.0 630.0
638 506.0 378.0
639 672.0 506.0
640 444.0 15.0
641 98.0 693.0
642 421.0 452.0
643 120.0 157.0
644 100.0 516.0
645 255.0 680.0
646 515.0 18.0
647 123.0 712.0
648 19.0 229.0
649 196.0 409.0
650 190.0 177.0
651 8.0 645.0
652 665.0 247.0
653 151.0 593.0
654 694.0 338.0
655 311.0 176.0
656 242.0 305.0
657 161.0 44.0
658 274.0 515.0
659 616.0 433.0
660 12.0 696.0
661 712.0 434.0
662 697.0 540.0
663 739.0 268.0
664 23.0 329.0
665 471.0 572.0
666 560.0 590.0
667 344.0 457.0
668 424.0 181.0
669 361.0 61.0
670 232.0 188.0
671 91.0 450.0
672 307.0 376.0
673 740.0 349.0
674 470.0 467.0
675 697.0 113.0
676 261.0 162.0
677 632.0 583.0
678 176.0 179.0
679 206.0 717.0
680 643.0 634.0
681 310.0 524.0
682 647.0 326.0
683 350.0 565.0
684 665.0 110.0
685 642.0 295.0
686 6.0 570.0
687 649.0 651.0
688 467.0 57.0
689 78.0 432.0
690 551.0 546.0
691 161.0 293.0
692 697.0 729.0
693 498.0 469.0
694 186.0 716.0
695 497.0 240.0
696 626.0 27.0
697 165.0 519.0
698 16.0 656.0
699 244.0 57.0
700 595.0 750.0
701 149.0 447.0
702 77.0 11.0
703 649.0 502.0
704 732.0 182.0
705 63.0 518.0
706 261.0 673.0
707 298.0 146.0
708 651.0 75.0
709 4.0 50.0
710 263.0 294.0
711 537.0 336.0
712 95.0 425.0
713 304.0 646.0
714 707.0 702.0
715 732.0 710.0
716 269.0 523.0
717 620.0 637.0
718 490.0 639.0
719 660.0 582.0
720 577.0 691.0
721 293.0 662.0
722 553.0 114.0
723 187.0 104.0
724 86.0 714.0
725 431.0 416.0
726 139.0 345.0
727 474.0 700.0
728 593.0 14.0
729 82.0 250.0
730 645.0 588.0
731 518.0 467.0
732 636.0 297.0
733 539.0 652.0
734 745.0 150.0
735 402.0 10.0
736 109.0 139.0
737 278.0 152.0
738 225.0 155.0
739 330.0 583.0
740 591.0 253.0
741 36.0 322.0
742 137.0 627.0
743 428.0 194.0
744 400.0 221.0
745 325.0 571.0
746 118.0 22.0
747 658.0 104.0
748 477.0 228.0
749 357.0 740.0
750 683.0 524.0
EOF





